(set-info :origin "benchmarks generated by liquid types http://goto.ucsd.edu/~rjhala/liquid/")
(set-logic HORN)
(assert (forall ((tmp_main__SSA__blk_0_1 Int)
         (y_main__SSA__blk_0_1 Int)
         (VV Int)
         (lqn_0 Int)
         (__cil_tmp4_main Int)
         (FINAL0 Int)
         (C14_Ix_0 Int)
         (z_main__SSA__blk_0_1 Int)
         (BLOCK_BEGIN (Array Int Int))
         (DEREF (Array Int Int))
         (BLOCK_END (Array Int Int))
         (UNCHECKED (Array Int Int)))
  (let ((a!1 (= FINAL0
                (select DEREF (+ (select BLOCK_BEGIN y_main__SSA__blk_0_1) 0)))))
    (=> (and (not (= VV FINAL0))
             false
             a!1
             (= FINAL0 0)
             (= __cil_tmp4_main 4)
             (= lqn_0 0)
             (= tmp_main__SSA__blk_0_1
                (select BLOCK_BEGIN tmp_main__SSA__blk_0_1))
             (> tmp_main__SSA__blk_0_1 0)
             (= (+ tmp_main__SSA__blk_0_1 __cil_tmp4_main)
                (select BLOCK_END tmp_main__SSA__blk_0_1))
             (= y_main__SSA__blk_0_1 tmp_main__SSA__blk_0_1)
             (= z_main__SSA__blk_0_1 0)
             (= VV C14_Ix_0)
             true)
        false))))
(assert (forall ((__cil_tmp4_main Int)
         (VV Int)
         (BLOCK_BEGIN (Array Int Int))
         (DEREF (Array Int Int))
         (BLOCK_END (Array Int Int))
         (UNCHECKED (Array Int Int)))
  (=> (and (not (>= VV 0)) (= __cil_tmp4_main 4) (= VV __cil_tmp4_main) true)
      false)))
(assert (forall ((tmp_main__SSA__blk_0_1 Int)
         (__cil_tmp4_main Int)
         (VV Int)
         (lqn_0 Int)
         (y_main__SSA__blk_0_1 Int)
         (BLOCK_BEGIN (Array Int Int))
         (DEREF (Array Int Int))
         (BLOCK_END (Array Int Int))
         (UNCHECKED (Array Int Int)))
  (let ((a!1 (or (= (select UNCHECKED VV) 1)
                 (and (<= (select BLOCK_BEGIN VV) VV)
                      (< VV (select BLOCK_END VV))
                      true)
                 false)))
    (=> (and (not a!1)
             (= __cil_tmp4_main 4)
             (= lqn_0 0)
             (= tmp_main__SSA__blk_0_1
                (select BLOCK_BEGIN tmp_main__SSA__blk_0_1))
             (> tmp_main__SSA__blk_0_1 0)
             (= (+ tmp_main__SSA__blk_0_1 __cil_tmp4_main)
                (select BLOCK_END tmp_main__SSA__blk_0_1))
             (= y_main__SSA__blk_0_1 tmp_main__SSA__blk_0_1)
             (< VV (+ y_main__SSA__blk_0_1 4))
             (<= y_main__SSA__blk_0_1 VV)
             (= (select UNCHECKED VV) (select UNCHECKED y_main__SSA__blk_0_1))
             (= (select BLOCK_END VV) (select BLOCK_END y_main__SSA__blk_0_1))
             (= (select BLOCK_BEGIN VV)
                (select BLOCK_BEGIN y_main__SSA__blk_0_1))
             true)
        false))))

(check-sat)
